c This is a DIMACS SAT-instances file to check the chromatic number
c 
c The file Name               : GraphR5.txt
c The number of vertices      : 32
c 
c The chosen number of colour : 3
c 
p cnf 96 320
1 33 65 0
2 34 66 0
3 35 67 0
4 36 68 0
5 37 69 0
6 38 70 0
7 39 71 0
8 40 72 0
9 41 73 0
10 42 74 0
11 43 75 0
12 44 76 0
13 45 77 0
14 46 78 0
15 47 79 0
16 48 80 0
17 49 81 0
18 50 82 0
19 51 83 0
20 52 84 0
21 53 85 0
22 54 86 0
23 55 87 0
24 56 88 0
25 57 89 0
26 58 90 0
27 59 91 0
28 60 92 0
29 61 93 0
30 62 94 0
31 63 95 0
32 64 96 0
-1 -33 0
-1 -65 0
-33 -65 0
-2 -34 0
-2 -66 0
-34 -66 0
-3 -35 0
-3 -67 0
-35 -67 0
-4 -36 0
-4 -68 0
-36 -68 0
-5 -37 0
-5 -69 0
-37 -69 0
-6 -38 0
-6 -70 0
-38 -70 0
-7 -39 0
-7 -71 0
-39 -71 0
-8 -40 0
-8 -72 0
-40 -72 0
-9 -41 0
-9 -73 0
-41 -73 0
-10 -42 0
-10 -74 0
-42 -74 0
-11 -43 0
-11 -75 0
-43 -75 0
-12 -44 0
-12 -76 0
-44 -76 0
-13 -45 0
-13 -77 0
-45 -77 0
-14 -46 0
-14 -78 0
-46 -78 0
-15 -47 0
-15 -79 0
-47 -79 0
-16 -48 0
-16 -80 0
-48 -80 0
-17 -49 0
-17 -81 0
-49 -81 0
-18 -50 0
-18 -82 0
-50 -82 0
-19 -51 0
-19 -83 0
-51 -83 0
-20 -52 0
-20 -84 0
-52 -84 0
-21 -53 0
-21 -85 0
-53 -85 0
-22 -54 0
-22 -86 0
-54 -86 0
-23 -55 0
-23 -87 0
-55 -87 0
-24 -56 0
-24 -88 0
-56 -88 0
-25 -57 0
-25 -89 0
-57 -89 0
-26 -58 0
-26 -90 0
-58 -90 0
-27 -59 0
-27 -91 0
-59 -91 0
-28 -60 0
-28 -92 0
-60 -92 0
-29 -61 0
-29 -93 0
-61 -93 0
-30 -62 0
-30 -94 0
-62 -94 0
-31 -63 0
-31 -95 0
-63 -95 0
-32 -64 0
-32 -96 0
-64 -96 0
-16 -28 0
-48 -60 0
-80 -92 0
-16 -26 0
-48 -58 0
-80 -90 0
-16 -3 0
-48 -35 0
-80 -67 0
-16 -17 0
-48 -49 0
-80 -81 0
-28 -5 0
-60 -37 0
-92 -69 0
-28 -10 0
-60 -42 0
-92 -74 0
-28 -6 0
-60 -38 0
-92 -70 0
-5 -8 0
-37 -40 0
-69 -72 0
-5 -1 0
-37 -33 0
-69 -65 0
-5 -12 0
-37 -44 0
-69 -76 0
-8 -17 0
-40 -49 0
-72 -81 0
-8 -30 0
-40 -62 0
-72 -94 0
-8 -29 0
-40 -61 0
-72 -93 0
-2 -22 0
-34 -54 0
-66 -86 0
-2 -25 0
-34 -57 0
-66 -89 0
-2 -23 0
-34 -55 0
-66 -87 0
-2 -19 0
-34 -51 0
-66 -83 0
-22 -1 0
-54 -33 0
-86 -65 0
-22 -32 0
-54 -64 0
-86 -96 0
-22 -31 0
-54 -63 0
-86 -95 0
-11 -12 0
-43 -44 0
-75 -76 0
-11 -31 0
-43 -63 0
-75 -95 0
-11 -7 0
-43 -39 0
-75 -71 0
-11 -30 0
-43 -62 0
-75 -94 0
-12 -9 0
-44 -41 0
-76 -73 0
-12 -13 0
-44 -45 0
-76 -77 0
-27 -29 0
-59 -61 0
-91 -93 0
-27 -15 0
-59 -47 0
-91 -79 0
-27 -24 0
-59 -56 0
-91 -88 0
-27 -18 0
-59 -50 0
-91 -82 0
-29 -23 0
-61 -55 0
-93 -87 0
-29 -26 0
-61 -58 0
-93 -90 0
-14 -18 0
-46 -50 0
-78 -82 0
-14 -13 0
-46 -45 0
-78 -77 0
-14 -26 0
-46 -58 0
-78 -90 0
-14 -25 0
-46 -57 0
-78 -89 0
-18 -10 0
-50 -42 0
-82 -74 0
-18 -20 0
-50 -52 0
-82 -84 0
-15 -4 0
-47 -36 0
-79 -68 0
-15 -13 0
-47 -45 0
-79 -77 0
-15 -3 0
-47 -35 0
-79 -67 0
-17 -20 0
-49 -52 0
-81 -84 0
-17 -21 0
-49 -53 0
-81 -85 0
-24 -19 0
-56 -51 0
-88 -83 0
-24 -3 0
-56 -35 0
-88 -67 0
-24 -30 0
-56 -62 0
-88 -94 0
-30 -6 0
-62 -38 0
-94 -70 0
-4 -25 0
-36 -57 0
-68 -89 0
-4 -20 0
-36 -52 0
-68 -84 0
-4 -9 0
-36 -41 0
-68 -73 0
-25 -10 0
-57 -42 0
-89 -74 0
-19 -1 0
-51 -33 0
-83 -65 0
-19 -9 0
-51 -41 0
-83 -73 0
-31 -1 0
-63 -33 0
-95 -65 0
-31 -23 0
-63 -55 0
-95 -87 0
-13 -6 0
-45 -38 0
-77 -70 0
-26 -9 0
-58 -41 0
-90 -73 0
-6 -21 0
-38 -53 0
-70 -85 0
-7 -3 0
-39 -35 0
-71 -67 0
-7 -32 0
-39 -64 0
-71 -96 0
-7 -21 0
-39 -53 0
-71 -85 0
-32 -10 0
-64 -42 0
-96 -74 0
-32 -20 0
-64 -52 0
-96 -84 0
-23 -21 0
-55 -53 0
-87 -85 0
